50 2991
1512 575 336 805 460 168 690 345 672 1150 168 345 345 575 504 1512 805 805 690 805 1176 115 1150 1008 672 460 345 1176 1008 168 1344 575 1150 336 1344 345 1008 1035 1344 920 168 1512 672 460 460 504 460 460 672 920 
1503 630 334 882 504 167 756 378 668 1260 167 378 378 630 501 1503 882 882 756 882 1169 126 1260 1002 668 504 378 1169 1002 167 1336 630 1260 334 1336 378 1002 1134 1336 1008 167 1503 668 504 504 501 504 504 668 1008 
